(set-logic QF_NRA)
(declare-fun x1 () Real)
(declare-fun x2 () Real)
(declare-fun x3 () Real)
(declare-fun x4 () Real)
(declare-fun x5 () Real)
(declare-fun x6 () Real)

(assert (>= (- 5 ( + ( + (* -8 (* x1 x2)) (* -6 x1) ) (* -5 x3) )) 0))
(assert (>= (- 9 ( + ( + (* 10 (* x4 x4)) (* -4 x4) ) (* 4 (* x1 x3)) )) 0))
(assert (>= (- -6 ( + ( + ( + (* 3 (* x4 x5)) (* -8 (* x5 x5)) ) (* -4 (* x4 x4)) ) (* -6 (* x3 x5)) )) 0))
(assert (>= (- -5 ( + ( + (* -7 (* x4 x6)) (* -1 (* x5 x5)) ) (* 5 (* x4 x5)) )) 0))
(assert (>= (- 6 (* 2 (* x2 x2))) 0))
(assert (>= (- 2 ( + ( + ( + (* 10 (* x1 x3)) (* 7 x3) ) (* 4 (* x3 x3)) ) (* -5 x2) )) 0))
(check-sat)
(exit)